c :: WCTIME=0.501915
c :: command line :: ./optimal-finder cvc-mult2-2n2n_2.cnf -greedy
c :: version :: 160
c :: reference filename :: cvc-mult2-2n2n_2.cnf
c :: reference encoding :: 97
c i 3 6 2 8 5 11 21 37 0
c :: reference encoding :: variables :: 36 :: clauses :: 110
c Iteration: 1	 MinCls: 19
c Iteration: 2	 MinCls: 19
c i 3 6 2 8 5 11 21 37 0
c aux
c :: optimal encoding :: variables :: 8 :: clauses :: 24
c :: optimal minimal encoding :: 19
p cnf 37 19
6 -37 0
-37 8 0
-37 5 0
-37 -11 0
2 -5 0
-21 6 0
-21 8 0
-21 -5 0
3 -5 0
-21 -3 11 0
5 -3 -2 0
-21 11 -2 0
2 8 -11 0
2 -11 3 0
-11 6 8 0
3 6 -11 0
-3 -8 11 37 0
-8 37 -6 21 0
37 11 -2 -6 0
